letting n_nurses=25
letting n_days=7
letting n_shift_types=4
letting max_covers=20
letting t_covers=87
letting covers=[20,4,0,0,15,3,0,0,17,3,0,0,1,0,0,0,6,0,1,0,1,0,0,0,3,13,0,0]
letting prefes=[3,1,3,1,1,3,1,2,1,3,1,2,1,3,1,2,3,1,3,1,3,1,3,1,1,3,1,2,3,1,3,1,4,3,1,2,4,3,1,2,4,3,1,2,3,1,3,1,3,1,3,1,4,3,1,2,3,1,1,4,1,3,1,1,1,3,1,1,1,3,1,1,3,1,1,4,3,1,1,4,1,3,1,1,3,3,3,1,4,3,1,2,4,3,1,2,4,3,1,2,3,3,3,1,3,3,3,1,4,3,1,2,3,1,3,4,1,3,1,2,1,3,1,2,1,3,1,2,3,1,3,4,3,1,3,4,1,3,1,2,1,3,3,4,4,3,1,1,4,3,1,1,4,3,1,1,1,3,3,4,1,3,3,4,4,3,1,1,1,1,3,4,4,3,1,2,4,3,1,2,4,3,1,2,1,1,3,4,1,1,3,4,4,3,1,2,3,1,3,4,4,1,1,2,4,1,1,2,4,1,1,2,3,1,3,4,3,1,3,4,4,1,1,2,3,1,1,4,4,1,4,2,4,1,4,2,4,1,4,2,3,1,1,4,3,1,1,4,4,1,4,2,3,1,3,4,4,1,1,1,4,1,1,1,4,1,1,1,3,1,3,4,3,1,3,4,4,1,1,1,3,1,3,4,4,3,4,2,4,3,4,2,4,3,4,2,3,1,3,4,3,1,3,4,4,3,4,2,3,1,1,4,4,3,1,2,4,3,1,2,4,3,1,2,3,1,1,4,3,1,1,4,4,3,1,2,1,3,3,4,1,3,1,2,1,3,1,2,1,3,1,2,1,3,3,4,1,3,3,4,1,3,1,2,3,1,3,4,4,3,1,2,4,3,1,2,4,3,1,2,3,1,3,4,3,1,3,4,4,3,1,2,1,1,3,4,1,3,1,2,1,3,1,2,1,3,1,2,1,1,3,4,1,1,3,4,1,3,1,2,3,3,3,1,4,3,4,2,4,3,4,2,4,3,4,2,3,3,3,1,3,3,3,1,4,3,4,2,3,1,3,4,4,3,1,1,4,3,1,1,4,3,1,1,3,1,3,4,3,1,3,4,4,3,1,1,3,1,3,4,4,1,1,2,4,1,1,2,4,1,1,2,3,1,3,4,3,1,3,4,4,1,1,2,3,3,3,1,4,1,1,2,4,1,1,2,4,1,1,2,3,3,3,1,3,3,3,1,4,1,1,2,3,1,3,4,4,3,4,2,4,3,4,2,4,3,4,2,3,1,3,4,3,1,3,4,4,3,4,2,1,1,3,4,4,3,1,2,4,3,1,2,4,3,1,2,1,1,3,4,1,1,3,4,4,3,1,2,3,1,1,4,4,3,1,2,4,3,1,2,4,3,1,2,3,1,1,4,3,1,1,4,4,3,1,2,3,1,3,4,4,3,4,2,4,3,4,2,4,3,4,2,3,1,3,4,3,1,3,4,4,3,4,2,3,1,1,4,4,3,1,1,4,3,1,1,4,3,1,1,3,1,1,4,3,1,1,4,4,3,1,1,3,1,3,4,4,3,1,2,4,3,1,2,4,3,1,2,3,1,3,4,3,1,3,4,4,3,1,2]
letting ub =  339
